c Standarized MaxSat Instance
c{
c "sha1sum": "5716a7db29eece8c3d076942de956e3081e2dd19",
c "nvars": 280,
c "ncls": 1309,
c "total_lits": 2702,
c "nhards": 364,
c "nhard_nlits": 812,
c "nhard_len_stats":
c    { "min": 2,
c      "max": 5,
c      "ave": 2.2308,
c      "stddev": 0.7994 },
c "nsofts": 945,
c "nsoft_nlits": 1890,
c "nsoft_len_stats":
c    { "min": 1,
c      "max": 5,
c      "ave": 2.0000,
c      "stddev": 0.9617 },
c "nsoft_wts": 1,
c "soft_wt_stats":
c    { "min": 1,
c      "max": 1,
c      "ave": 1.0000,
c      "stddev": 0.0000 }
c}
c------------------------------------------------------------
c Original instance: kbtree_wcnf.s-suppc_w9-s7-h3-d5/80/kbtree9_7_3_5_80_2.wcsp
c Format: Partial Max-SAT (wcnf)
c Encoding: [SEQUENTIAL] + Support (less SUM 2^#literals direction)
h 1 2 3 4 5 0
h 6 7 8 9 10 0
h 11 12 13 14 15 0
h 16 17 18 19 20 0
h 21 22 23 24 25 0
h 26 27 28 29 30 0
h 31 32 33 34 35 0
h 36 37 38 39 40 0
h 41 42 43 44 45 0
h 46 47 48 49 50 0
h 51 52 53 54 55 0
h 56 57 58 59 60 0
h 61 62 63 64 65 0
h 66 67 68 69 70 0
h 71 72 73 74 75 0
h 76 77 78 79 80 0
h 81 82 83 84 85 0
h 86 87 88 89 90 0
h 91 92 93 94 95 0
h 96 97 98 99 100 0
h 101 102 103 104 105 0
h 106 107 108 109 110 0
h 111 112 113 114 115 0
h 116 117 118 119 120 0
h 121 122 123 124 125 0
h 126 127 128 129 130 0
h 131 132 133 134 135 0
h 136 137 138 139 140 0
h -1 -142 0
h -2 142 0
h -2 -143 0
h -3 143 0
h -3 -144 0
h -4 144 0
h -4 -145 0
h -5 145 0
h -6 -147 0
h -7 147 0
h -7 -148 0
h -8 148 0
h -8 -149 0
h -9 149 0
h -9 -150 0
h -10 150 0
h -11 -152 0
h -12 152 0
h -12 -153 0
h -13 153 0
h -13 -154 0
h -14 154 0
h -14 -155 0
h -15 155 0
h -16 -157 0
h -17 157 0
h -17 -158 0
h -18 158 0
h -18 -159 0
h -19 159 0
h -19 -160 0
h -20 160 0
h -21 -162 0
h -22 162 0
h -22 -163 0
h -23 163 0
h -23 -164 0
h -24 164 0
h -24 -165 0
h -25 165 0
h -26 -167 0
h -27 167 0
h -27 -168 0
h -28 168 0
h -28 -169 0
h -29 169 0
h -29 -170 0
h -30 170 0
h -31 -172 0
h -32 172 0
h -32 -173 0
h -33 173 0
h -33 -174 0
h -34 174 0
h -34 -175 0
h -35 175 0
h -36 -177 0
h -37 177 0
h -37 -178 0
h -38 178 0
h -38 -179 0
h -39 179 0
h -39 -180 0
h -40 180 0
h -41 -182 0
h -42 182 0
h -42 -183 0
h -43 183 0
h -43 -184 0
h -44 184 0
h -44 -185 0
h -45 185 0
h -46 -187 0
h -47 187 0
h -47 -188 0
h -48 188 0
h -48 -189 0
h -49 189 0
h -49 -190 0
h -50 190 0
h -51 -192 0
h -52 192 0
h -52 -193 0
h -53 193 0
h -53 -194 0
h -54 194 0
h -54 -195 0
h -55 195 0
h -56 -197 0
h -57 197 0
h -57 -198 0
h -58 198 0
h -58 -199 0
h -59 199 0
h -59 -200 0
h -60 200 0
h -61 -202 0
h -62 202 0
h -62 -203 0
h -63 203 0
h -63 -204 0
h -64 204 0
h -64 -205 0
h -65 205 0
h -66 -207 0
h -67 207 0
h -67 -208 0
h -68 208 0
h -68 -209 0
h -69 209 0
h -69 -210 0
h -70 210 0
h -71 -212 0
h -72 212 0
h -72 -213 0
h -73 213 0
h -73 -214 0
h -74 214 0
h -74 -215 0
h -75 215 0
h -76 -217 0
h -77 217 0
h -77 -218 0
h -78 218 0
h -78 -219 0
h -79 219 0
h -79 -220 0
h -80 220 0
h -81 -222 0
h -82 222 0
h -82 -223 0
h -83 223 0
h -83 -224 0
h -84 224 0
h -84 -225 0
h -85 225 0
h -86 -227 0
h -87 227 0
h -87 -228 0
h -88 228 0
h -88 -229 0
h -89 229 0
h -89 -230 0
h -90 230 0
h -91 -232 0
h -92 232 0
h -92 -233 0
h -93 233 0
h -93 -234 0
h -94 234 0
h -94 -235 0
h -95 235 0
h -96 -237 0
h -97 237 0
h -97 -238 0
h -98 238 0
h -98 -239 0
h -99 239 0
h -99 -240 0
h -100 240 0
h -101 -242 0
h -102 242 0
h -102 -243 0
h -103 243 0
h -103 -244 0
h -104 244 0
h -104 -245 0
h -105 245 0
h -106 -247 0
h -107 247 0
h -107 -248 0
h -108 248 0
h -108 -249 0
h -109 249 0
h -109 -250 0
h -110 250 0
h -111 -252 0
h -112 252 0
h -112 -253 0
h -113 253 0
h -113 -254 0
h -114 254 0
h -114 -255 0
h -115 255 0
h -116 -257 0
h -117 257 0
h -117 -258 0
h -118 258 0
h -118 -259 0
h -119 259 0
h -119 -260 0
h -120 260 0
h -121 -262 0
h -122 262 0
h -122 -263 0
h -123 263 0
h -123 -264 0
h -124 264 0
h -124 -265 0
h -125 265 0
h -126 -267 0
h -127 267 0
h -127 -268 0
h -128 268 0
h -128 -269 0
h -129 269 0
h -129 -270 0
h -130 270 0
h -131 -272 0
h -132 272 0
h -132 -273 0
h -133 273 0
h -133 -274 0
h -134 274 0
h -134 -275 0
h -135 275 0
h -136 -277 0
h -137 277 0
h -137 -278 0
h -138 278 0
h -138 -279 0
h -139 279 0
h -139 -280 0
h -140 280 0
h -142 141 0
h -143 142 0
h -144 143 0
h -145 144 0
h -147 146 0
h -148 147 0
h -149 148 0
h -150 149 0
h -152 151 0
h -153 152 0
h -154 153 0
h -155 154 0
h -157 156 0
h -158 157 0
h -159 158 0
h -160 159 0
h -162 161 0
h -163 162 0
h -164 163 0
h -165 164 0
h -167 166 0
h -168 167 0
h -169 168 0
h -170 169 0
h -172 171 0
h -173 172 0
h -174 173 0
h -175 174 0
h -177 176 0
h -178 177 0
h -179 178 0
h -180 179 0
h -182 181 0
h -183 182 0
h -184 183 0
h -185 184 0
h -187 186 0
h -188 187 0
h -189 188 0
h -190 189 0
h -192 191 0
h -193 192 0
h -194 193 0
h -195 194 0
h -197 196 0
h -198 197 0
h -199 198 0
h -200 199 0
h -202 201 0
h -203 202 0
h -204 203 0
h -205 204 0
h -207 206 0
h -208 207 0
h -209 208 0
h -210 209 0
h -212 211 0
h -213 212 0
h -214 213 0
h -215 214 0
h -217 216 0
h -218 217 0
h -219 218 0
h -220 219 0
h -222 221 0
h -223 222 0
h -224 223 0
h -225 224 0
h -227 226 0
h -228 227 0
h -229 228 0
h -230 229 0
h -232 231 0
h -233 232 0
h -234 233 0
h -235 234 0
h -237 236 0
h -238 237 0
h -239 238 0
h -240 239 0
h -242 241 0
h -243 242 0
h -244 243 0
h -245 244 0
h -247 246 0
h -248 247 0
h -249 248 0
h -250 249 0
h -252 251 0
h -253 252 0
h -254 253 0
h -255 254 0
h -257 256 0
h -258 257 0
h -259 258 0
h -260 259 0
h -262 261 0
h -263 262 0
h -264 263 0
h -265 264 0
h -267 266 0
h -268 267 0
h -269 268 0
h -270 269 0
h -272 271 0
h -273 272 0
h -274 273 0
h -275 274 0
h -277 276 0
h -278 277 0
h -279 278 0
h -280 279 0
1 -111 0
1 -112 42 43 44 0
1 -113 0
1 -114 43 0
1 -115 43 0
1 -131 22 24 0
1 -132 21 22 23 0
1 -133 0
1 -134 0
1 -135 0
1 -11 10 0
1 -12 0
1 -13 8 0
1 -14 6 10 0
1 -15 7 0
1 -121 25 0
1 -122 24 0
1 -123 0
1 -124 21 0
1 -125 22 25 0
1 -46 3 0
1 -47 1 0
1 -48 0
1 -49 0
1 -50 1 2 4 0
1 -16 0
1 -17 36 40 0
1 -18 0
1 -19 37 40 0
1 -20 38 0
1 -116 0
1 -117 0
1 -118 8 10 0
1 -119 10 0
1 -120 8 9 0
1 -121 97 0
1 -122 96 99 0
1 -123 98 0
1 -124 0
1 -125 97 0
1 -56 8 9 0
1 -57 0
1 -58 0
1 -59 8 10 0
1 -60 6 0
1 -26 0
1 -27 11 13 14 15 0
1 -28 11 0
1 -29 0
1 -30 0
1 -11 0
1 -12 93 0
1 -13 0
1 -14 91 93 0
1 -15 92 95 0
1 -61 76 77 79 0
1 -62 76 0
1 -63 78 0
1 -64 0
1 -65 0
1 -96 23 24 25 0
1 -97 0
1 -98 23 0
1 -99 0
1 -100 24 0
1 -126 2 0
1 -127 1 0
1 -128 0
1 -129 1 2 4 0
1 -130 0
1 -46 8 0
1 -47 9 10 0
1 -48 0
1 -49 9 10 0
1 -50 0
1 -136 131 134 0
1 -137 131 0
1 -138 0
1 -139 133 0
1 -140 135 0
1 -111 25 0
1 -112 24 25 0
1 -113 0
1 -114 0
1 -115 22 23 0
1 -56 0
1 -57 37 38 39 0
1 -58 36 40 0
1 -59 0
1 -60 0
1 -101 10 0
1 -102 8 10 0
1 -103 0
1 -104 6 9 0
1 -105 0
1 -11 4 0
1 -12 0
1 -13 3 4 5 0
1 -14 0
1 -15 1 0
1 -31 0
1 -32 43 44 45 0
1 -33 0
1 -34 41 43 0
1 -35 0
1 -36 118 119 0
1 -37 0
1 -38 0
1 -39 118 119 120 0
1 -40 0
1 -56 0
1 -57 78 79 0
1 -58 78 0
1 -59 0
1 -60 76 80 0
1 -31 98 0
1 -32 0
1 -33 0
1 -34 97 100 0
1 -35 97 99 0
1 -56 0
1 -57 53 54 0
1 -58 55 0
1 -59 0
1 -60 53 54 0
1 -41 10 0
1 -42 9 0
1 -43 0
1 -44 8 0
1 -45 6 10 0
1 -66 38 0
1 -67 36 38 40 0
1 -68 0
1 -69 0
1 -70 40 0
1 -91 46 49 0
1 -92 48 0
1 -93 0
1 -94 48 50 0
1 -95 0
1 -126 0
1 -127 0
1 -128 96 99 0
1 -129 97 98 100 0
1 -130 0
1 -1 7 9 10 0
1 -2 7 8 0
1 -3 0
1 -4 0
1 -5 0
1 -6 112 0
1 -7 0
1 -8 0
1 -9 112 113 0
1 -10 114 115 0
1 -16 0
1 -17 0
1 -18 98 0
1 -19 98 100 0
1 -20 96 97 0
1 -36 41 0
1 -37 42 0
1 -38 43 44 0
1 -39 45 0
1 -40 0
1 -96 5 0
1 -97 0
1 -98 2 0
1 -99 1 2 3 0
1 -100 0
1 -76 0
1 -77 26 0
1 -78 27 0
1 -79 26 28 29 0
1 -80 0
1 -76 52 55 0
1 -77 0
1 -78 53 0
1 -79 52 53 0
1 -80 0
1 -116 31 32 0
1 -117 0
1 -118 35 0
1 -119 34 0
1 -120 34 0
1 -86 53 55 0
1 -87 0
1 -88 0
1 -89 54 0
1 -90 51 52 0
1 -16 107 0
1 -17 108 110 0
1 -18 106 109 0
1 -19 0
1 -20 0
1 -41 0
1 -42 108 109 0
1 -43 109 0
1 -44 0
1 -45 106 110 0
1 -96 43 44 0
1 -97 0
1 -98 45 0
1 -99 43 44 0
1 -100 0
1 -26 0
1 -27 7 0
1 -28 6 9 10 0
1 -29 6 0
1 -30 0
1 -46 87 0
1 -47 86 90 0
1 -48 88 0
1 -49 0
1 -50 89 0
1 -1 0
1 -2 0
1 -3 45 0
1 -4 41 44 0
1 -5 41 42 0
1 -71 30 0
1 -72 30 0
1 -73 0
1 -74 26 27 30 0
1 -75 0
1 -61 0
1 -62 0
1 -63 32 0
1 -64 31 0
1 -65 31 33 35 0
1 -131 38 0
1 -132 36 0
1 -133 39 0
1 -134 0
1 -135 36 40 0
1 -116 24 0
1 -117 23 0
1 -118 21 0
1 -119 21 25 0
1 -120 0
1 -111 2 4 0
1 -112 3 0
1 -113 0
1 -114 1 2 0
1 -115 0
1 -61 47 49 50 0
1 -62 46 0
1 -63 0
1 -64 50 0
1 -65 0
1 -46 0
1 -47 43 0
1 -48 45 0
1 -49 42 43 44 0
1 -50 0
1 -51 0
1 -52 46 0
1 -53 47 49 0
1 -54 48 0
1 -55 49 0
1 -6 79 0
1 -7 76 78 79 0
1 -8 0
1 -9 78 0
1 -10 0
1 -6 0
1 -7 126 130 0
1 -8 129 0
1 -9 0
1 -10 127 128 0
1 -6 0
1 -7 0
1 -8 137 0
1 -9 136 0
1 -10 136 138 139 0
1 -131 100 0
1 -132 96 99 0
1 -133 0
1 -134 96 0
1 -135 97 0
1 -71 53 0
1 -72 55 0
1 -73 0
1 -74 0
1 -75 52 53 55 0
1 -66 0
1 -67 6 7 0
1 -68 7 0
1 -69 8 10 0
1 -70 0
1 -91 0
1 -92 0
1 -93 37 39 0
1 -94 37 39 40 0
1 -95 0
1 -76 31 32 33 0
1 -77 0
1 -78 0
1 -79 31 34 0
1 -80 0
1 -41 29 0
1 -42 26 0
1 -43 0
1 -44 26 27 30 0
1 -45 0
1 -111 96 97 0
1 -112 98 0
1 -113 0
1 -114 98 99 0
1 -115 0
1 -96 0
1 -97 38 40 0
1 -98 36 38 0
1 -99 39 0
1 -100 0
1 -51 8 0
1 -52 9 10 0
1 -53 0
1 -54 0
1 -55 6 7 0
1 -106 103 104 0
1 -107 0
1 -108 0
1 -109 101 103 0
1 -110 104 0
1 -26 0
1 -27 46 47 49 0
1 -28 48 0
1 -29 0
1 -30 47 0
1 -26 22 23 24 0
1 -27 0
1 -28 0
1 -29 21 22 0
1 -30 0
1 -56 32 33 0
1 -57 0
1 -58 34 0
1 -59 0
1 -60 31 34 0
1 -36 115 0
1 -37 114 0
1 -38 111 113 0
1 -39 0
1 -40 112 0
1 -116 5 0
1 -117 0
1 -118 1 4 0
1 -119 1 2 0
1 -120 0
1 -106 7 0
1 -107 0
1 -108 0
1 -109 7 8 10 0
1 -110 8 0
1 -81 93 0
1 -82 0
1 -83 93 94 95 0
1 -84 95 0
1 -85 0
1 -81 0
1 -82 29 0
1 -83 28 30 0
1 -84 27 0
1 -85 30 0
1 -136 0
1 -137 0
1 -138 106 108 0
1 -139 109 110 0
1 -140 109 0
1 -61 0
1 -62 88 90 0
1 -63 87 0
1 -64 86 88 0
1 -65 0
1 -36 0
1 -37 61 63 0
1 -38 62 0
1 -39 64 0
1 -40 65 0
1 -86 33 34 0
1 -87 31 0
1 -88 0
1 -89 31 32 0
1 -90 0
1 -26 0
1 -27 31 33 35 0
1 -28 34 0
1 -29 35 0
1 -30 0
1 -136 0
1 -137 1 2 0
1 -138 2 4 0
1 -139 0
1 -140 4 0
1 -1 31 33 35 0
1 -2 31 34 0
1 -3 0
1 -4 0
1 -5 0
1 -36 0
1 -37 27 0
1 -38 29 0
1 -39 30 0
1 -40 26 27 0
1 -61 91 93 94 0
1 -62 92 0
1 -63 94 0
1 -64 0
1 -65 0
1 -106 0
1 -107 37 0
1 -108 37 38 0
1 -109 0
1 -110 36 38 0
1 -41 17 18 20 0
1 -42 18 0
1 -43 16 0
1 -44 0
1 -45 0
1 -21 104 0
1 -22 101 0
1 -23 0
1 -24 103 105 0
1 -25 102 0
1 -21 18 20 0
1 -22 0
1 -23 0
1 -24 17 0
1 -25 16 20 0
1 -36 0
1 -37 72 74 75 0
1 -38 0
1 -39 73 75 0
1 -40 0
1 -81 11 12 0
1 -82 0
1 -83 11 0
1 -84 13 14 0
1 -85 0
1 -76 69 0
1 -77 70 0
1 -78 68 0
1 -79 0
1 -80 66 70 0
1 -6 0
1 -7 0
1 -8 39 0
1 -9 38 0
1 -10 38 39 40 0
1 -31 0
1 -32 114 0
1 -33 112 113 0
1 -34 0
1 -35 113 115 0
1 -21 0
1 -22 31 0
1 -23 32 34 0
1 -24 32 35 0
1 -25 0
1 -81 53 0
1 -82 54 0
1 -83 51 52 0
1 -84 52 0
1 -85 0
1 -1 107 108 109 0
1 -2 0
1 -3 0
1 -4 109 110 0
1 -5 0
1 -121 0
1 -122 7 10 0
1 -123 6 8 0
1 -124 0
1 -125 10 0
1 -121 117 118 0
1 -122 0
1 -123 119 0
1 -124 0
1 -125 119 120 0
1 -66 0
1 -67 0
1 -68 72 0
1 -69 71 72 75 0
1 -70 71 0
1 -26 2 0
1 -27 3 0
1 -28 3 4 0
1 -29 0
1 -30 5 0
1 -116 42 45 0
1 -117 0
1 -118 0
1 -119 44 0
1 -120 41 45 0
1 -51 31 0
1 -52 0
1 -53 32 34 0
1 -54 33 0
1 -55 34 0
1 -61 54 0
1 -62 52 0
1 -63 0
1 -64 51 0
1 -65 51 53 0
1 -16 1 0
1 -17 0
1 -18 2 4 0
1 -19 1 2 0
1 -20 0
1 -56 41 0
1 -57 0
1 -58 42 45 0
1 -59 0
1 -60 41 44 0
1 -36 0
1 -37 89 0
1 -38 86 90 0
1 -39 86 87 0
1 -40 0
1 -36 0
1 -37 136 138 0
1 -38 140 0
1 -39 136 139 0
1 -40 0
1 -131 126 128 0
1 -132 127 0
1 -133 0
1 -134 0
1 -135 128 129 0
1 -66 0
1 -67 0
1 -68 26 29 0
1 -69 29 0
1 -70 26 30 0
1 -31 13 0
1 -32 0
1 -33 11 12 0
1 -34 12 0
1 -35 15 0
1 -121 43 0
1 -122 0
1 -123 41 0
1 -124 44 0
1 -125 42 45 0
1 -126 0
1 -127 24 25 0
1 -128 23 0
1 -129 0
1 -130 22 25 0
1 -131 0
1 -132 9 0
1 -133 7 0
1 -134 7 0
1 -135 8 10 0
1 -11 61 62 0
1 -12 0
1 -13 62 64 65 0
1 -14 0
1 -15 0
1 -46 32 34 35 0
1 -47 32 0
1 -48 0
1 -49 35 0
1 -50 0
1 -26 0
1 -27 52 0
1 -28 51 52 0
1 -29 0
1 -30 54 55 0
1 -96 10 0
1 -97 7 8 0
1 -98 9 0
1 -99 6 0
1 -100 0
1 -76 36 40 0
1 -77 37 38 0
1 -78 0
1 -79 39 0
1 -80 0
1 -136 101 0
1 -137 0
1 -138 103 105 0
1 -139 102 105 0
1 -140 0
1 -11 49 0
1 -12 47 49 50 0
1 -13 0
1 -14 48 0
1 -15 0
1 -111 0
1 -112 116 120 0
1 -113 0
1 -114 118 0
1 -115 117 118 0
1 -61 56 59 0
1 -62 57 60 0
1 -63 56 0
1 -64 0
1 -65 0
1 -1 122 124 0
1 -2 0
1 -3 123 0
1 -4 0
1 -5 121 125 0
1 -36 0
1 -37 11 0
1 -38 14 0
1 -39 14 0
1 -40 13 15 0
1 -31 109 110 0
1 -32 106 107 0
1 -33 0
1 -34 106 0
1 -35 0
1 -26 0
1 -27 64 65 0
1 -28 63 64 65 0
1 -29 0
1 -30 0
1 -36 126 129 130 0
1 -37 0
1 -38 0
1 -39 129 0
1 -40 127 0
1 -86 0
1 -87 0
1 -88 29 0
1 -89 29 0
1 -90 27 28 29 0
1 -36 31 33 34 0
1 -37 32 0
1 -38 0
1 -39 35 0
1 -40 0
1 -41 11 13 14 0
1 -42 0
1 -43 15 0
1 -44 12 0
1 -45 0
1 -66 56 58 60 0
1 -67 59 0
1 -68 0
1 -69 59 0
1 -70 0
1 -91 33 35 0
1 -92 0
1 -93 0
1 -94 34 0
1 -95 31 33 0
1 -51 44 0
1 -52 45 0
1 -53 44 0
1 -54 0
1 -55 41 42 0
1 -106 96 98 100 0
1 -107 97 0
1 -108 97 0
1 -109 0
1 -110 0
1 -21 0
1 -22 37 39 0
1 -23 38 0
1 -24 0
1 -25 39 40 0
1 -66 61 65 0
1 -67 63 0
1 -68 0
1 -69 0
1 -70 62 64 0
1 -31 72 73 75 0
1 -32 71 0
1 -33 0
1 -34 0
1 -35 72 0
1 -36 122 125 0
1 -37 121 124 0
1 -38 122 0
1 -39 0
1 -40 0
1 -31 0
1 -32 0
1 -33 81 83 85 0
1 -34 0
1 -35 81 83 0
1 -6 72 74 75 0
1 -7 73 0
1 -8 0
1 -9 74 0
1 -10 0
1 -6 0
1 -7 62 0
1 -8 63 64 0
1 -9 61 62 0
1 -10 0
1 -16 11 12 0
1 -17 0
1 -18 0
1 -19 11 12 14 0
1 -20 0
1 -1 0
1 -2 39 0
1 -3 0
1 -4 36 39 0
1 -5 37 40 0
1 -136 22 25 0
1 -137 0
1 -138 21 24 0
1 -139 24 0
1 -140 0
1 -51 92 95 0
1 -52 0
1 -53 0
1 -54 93 94 95 0
1 -55 0
1 -61 74 0
1 -62 75 0
1 -63 71 72 74 0
1 -64 0
1 -65 0
1 -41 25 0
1 -42 25 0
1 -43 0
1 -44 22 23 0
1 -45 24 0
1 -101 20 0
1 -102 16 0
1 -103 18 0
1 -104 19 20 0
1 -105 0
1 -26 0
1 -27 56 57 60 0
1 -28 0
1 -29 60 0
1 -30 59 0
1 -76 71 73 0
1 -77 73 0
1 -78 74 0
1 -79 75 0
1 -80 0
1 -36 82 0
1 -37 82 0
1 -38 81 84 85 0
1 -39 0
1 -40 0
1 -66 0
1 -67 35 0
1 -68 33 34 0
1 -69 32 0
1 -70 32 0
1 -11 0
1 -12 0
1 -13 0
1 -14 89 0
1 -15 86 88 89 90 0
1 -116 97 100 0
1 -117 96 97 100 0
1 -118 0
1 -119 0
1 -120 0
1 -36 102 103 0
1 -37 0
1 -38 105 0
1 -39 101 103 0
1 -40 0
1 -131 0
1 -132 103 104 0
1 -133 103 0
1 -134 102 105 0
1 -135 0
1 -86 91 0
1 -87 0
1 -88 93 94 0
1 -89 93 95 0
1 -90 0
1 -16 0
1 -17 7 10 0
1 -18 6 7 8 0
1 -19 0
1 -20 0
1 -56 0
1 -57 47 49 0
1 -58 46 0
1 -59 47 0
1 -60 50 0
1 -96 137 140 0
1 -97 136 0
1 -98 138 0
1 -99 0
1 -100 139 0
1 -41 64 65 0
1 -42 0
1 -43 62 65 0
1 -44 63 0
1 -45 0
1 -71 0
1 -72 56 58 0
1 -73 56 57 60 0
1 -74 0
1 -75 0
1 -101 42 0
1 -102 0
1 -103 45 0
1 -104 41 42 43 0
1 -105 0
1 -131 1 2 0
1 -132 0
1 -133 3 0
1 -134 2 0
1 -135 4 0
1 -21 2 0
1 -22 0
1 -23 1 0
1 -24 3 5 0
1 -25 1 0
1 -121 0
1 -122 111 112 115 0
1 -123 112 0
1 -124 0
1 -125 115 0
1 -11 0
1 -12 51 53 54 0
1 -13 0
1 -14 53 0
1 -15 54 0
1 -56 12 15 0
1 -57 14 0
1 -58 14 0
1 -59 11 0
1 -60 0
1 -46 0
1 -47 0
1 -48 24 0
1 -49 22 23 24 0
1 -50 23 0
1 -81 61 63 0
1 -82 0
1 -83 62 64 0
1 -84 64 0
1 -85 0
1 -36 0
1 -37 52 54 0
1 -38 51 53 54 0
1 -39 0
1 -40 0
1 -16 48 49 0
1 -17 46 0
1 -18 0
1 -19 0
1 -20 46 50 0
1 -126 107 108 110 0
1 -127 0
1 -128 106 110 0
1 -129 0
1 -130 0
1 -21 108 0
1 -22 109 110 0
1 -23 0
1 -24 0
1 -25 106 107 0
1 -121 34 0
1 -122 33 34 0
1 -123 35 0
1 -124 0
1 -125 31 0
1 -26 16 20 0
1 -27 19 0
1 -28 0
1 -29 16 20 0
1 -30 0
1 -31 7 0
1 -32 9 0
1 -33 0
1 -34 0
1 -35 6 8 9 0
1 -101 0
1 -102 128 130 0
1 -103 0
1 -104 126 129 130 0
1 -105 0
1 -21 6 7 0
1 -22 10 0
1 -23 9 0
1 -24 9 0
1 -25 0
1 -31 0
1 -32 20 0
1 -33 19 0
1 -34 16 0
1 -35 16 18 0
1 -86 0
1 -87 0
1 -88 82 83 0
1 -89 81 85 0
1 -90 82 0
1 -136 129 0
1 -137 127 0
1 -138 128 130 0
1 -139 0
1 -140 127 0
1 -66 55 0
1 -67 51 54 0
1 -68 55 0
1 -69 53 0
1 -70 0
1 -1 0
1 -2 103 0
1 -3 0
1 -4 103 104 105 0
1 -5 101 0
1 -131 107 108 0
1 -132 110 0
1 -133 0
1 -134 107 108 0
1 -135 0
1 -31 102 0
1 -32 102 103 104 0
1 -33 0
1 -34 0
1 -35 101 0
1 -36 48 49 50 0
1 -37 0
1 -38 46 47 0
1 -39 0
1 -40 0
1 -101 0
1 -102 0
1 -103 100 0
1 -104 96 98 0
1 -105 97 100 0
1 -91 0
1 -92 27 29 0
1 -93 26 30 0
1 -94 27 0
1 -95 0
1 -81 46 47 0
1 -82 50 0
1 -83 49 0
1 -84 50 0
1 -85 0
1 -11 21 22 0
1 -12 21 25 0
1 -13 0
1 -14 24 0
1 -15 0
